
Gurobi 5.6.3 (linux64) logging started Thu Jun 11 17:50:05 2015


Gurobi 5.6.3 (linux64) logging started Thu Jun 11 17:50:32 2015


Gurobi 5.6.3 (linux64) logging started Thu Jun 11 17:51:16 2015


Gurobi 5.6.3 (linux64) logging started Thu Jun 11 17:52:31 2015


Gurobi 5.6.3 (linux64) logging started Thu Jun 11 17:56:41 2015


Gurobi 5.6.3 (linux64) logging started Thu Jun 11 17:57:21 2015


Gurobi 5.6.3 (linux64) logging started Thu Jun 11 18:01:13 2015


Gurobi 5.6.3 (linux64) logging started Thu Jun 11 18:01:20 2015


Gurobi 5.6.3 (linux64) logging started Thu Jun 11 18:02:23 2015


Gurobi 5.6.3 (linux64) logging started Thu Jun 11 18:02:34 2015


Gurobi 5.6.3 (linux64) logging started Thu Jun 11 23:57:14 2015


Gurobi 5.6.3 (linux64) logging started Thu Jun 11 23:57:32 2015


Gurobi 5.6.3 (linux64) logging started Thu Jun 25 09:42:45 2015


Gurobi 5.6.3 (linux64) logging started Thu Jun 25 09:43:35 2015


Gurobi 5.6.3 (linux64) logging started Thu Jun 25 09:44:19 2015


Gurobi 5.6.3 (linux64) logging started Thu Jun 25 10:29:19 2015


Gurobi 5.6.3 (linux64) logging started Thu Jun 25 11:05:36 2015


Gurobi 5.6.3 (linux64) logging started Sun Jul 12 16:41:15 2015


Gurobi 5.6.3 (linux64) logging started Sun Jul 12 16:41:56 2015


Gurobi 5.6.3 (linux64) logging started Mon Aug 31 15:59:15 2015


Gurobi 5.6.3 (linux64) logging started Mon Aug 31 16:00:59 2015


Gurobi 5.6.3 (linux64) logging started Thu Sep  3 16:21:38 2015


Gurobi 5.6.3 (linux64) logging started Thu Sep  3 16:22:00 2015


Gurobi 5.6.3 (linux64) logging started Thu Sep  3 16:22:17 2015


Gurobi 5.6.3 (linux64) logging started Wed Sep  9 14:28:55 2015


Gurobi 5.6.3 (linux64) logging started Wed Sep  9 14:29:42 2015


Gurobi 5.6.3 (linux64) logging started Wed Sep  9 14:30:45 2015


Gurobi 5.6.3 (linux64) logging started Wed Sep  9 17:19:44 2015


Gurobi 5.6.3 (linux64) logging started Tue Sep 15 16:10:28 2015


Gurobi 5.6.3 (linux64) logging started Tue Sep 15 16:11:15 2015


Gurobi 5.6.3 (linux64) logging started Tue Sep 15 16:12:29 2015


Gurobi 5.6.3 (linux64) logging started Tue Sep 15 16:13:00 2015


Gurobi 5.6.3 (linux64) logging started Tue Sep 15 16:13:15 2015


Gurobi 5.6.3 (linux64) logging started Tue Sep 15 16:16:29 2015


Gurobi 5.6.3 (linux64) logging started Tue Sep 15 16:16:59 2015


Gurobi 5.6.3 (linux64) logging started Tue Sep 15 16:36:52 2015


Gurobi 5.6.3 (linux64) logging started Sat Oct 24 16:47:17 2015


Gurobi 5.6.3 (linux64) logging started Sun Oct 25 10:54:20 2015


Gurobi 5.6.3 (linux64) logging started Fri Mar 18 11:33:35 2016


Gurobi 5.6.3 (linux64) logging started Fri Mar 18 11:34:33 2016

